c CNF-Signature AND_32
c 
c $p 32 1
c $m (1,2,3,4,5,6,7,8,9,10,11,12,13,14,15,16,17,18,19,20,21,22,23,24,25,26,27,28,29,30,31,32,33)
c $i 1
c $i 2
c $i 3
c $i 4
c $i 5
c $i 6
c $i 7
c $i 8
c $i 9
c $i 10
c $i 11
c $i 12
c $i 13
c $i 14
c $i 15
c $i 16
c $i 17
c $i 18
c $i 19
c $i 20
c $i 21
c $i 22
c $i 23
c $i 24
c $i 25
c $i 26
c $i 27
c $i 28
c $i 29
c $i 30
c $i 31
c $i 32
c $o 33
p cnf 33 33
1 -33 0
2 -33 0
3 -33 0
4 -33 0
5 -33 0
6 -33 0
7 -33 0
8 -33 0
9 -33 0
10 -33 0
11 -33 0
12 -33 0
13 -33 0
14 -33 0
15 -33 0
16 -33 0
17 -33 0
18 -33 0
19 -33 0
20 -33 0
21 -33 0
22 -33 0
23 -33 0
24 -33 0
25 -33 0
26 -33 0
27 -33 0
28 -33 0
29 -33 0
30 -33 0
31 -33 0
32 -33 0
-1 -2 -3 -4 -5 -6 -7 -8 -9 -10 -11 -12 -13 -14 -15 -16 -17 -18 -19 -20 -21 -22 -23 -24 -25 -26 -27 -28 -29 -30 -31 -32 33 0
